12 39
1 2 1
1 3 1
1 4 0
1 5 0
1 6 1
1 7 1
1 8 0
1 9 0
1 10 1
1 11 0
1 12 1
2 3 1
2 4 1
2 5 1
2 6 1
2 7 0
2 8 0
2 9 1
2 10 1
2 11 0
2 12 1
3 4 1
3 5 0
3 6 0
3 7 1
3 8 0
3 9 0
3 10 0
3 11 1
3 12 0
4 5 1
4 6 1
4 7 1
4 8 0
4 9 1
4 10 0
4 11 1
4 12 0
5 6 0
5 7 1
5 8 0
5 9 0
5 10 1
5 11 1
5 12 0
6 7 1
6 8 1
6 9 1
6 10 0
6 11 0
6 12 1
7 8 1
7 9 1
7 10 0
7 11 1
7 12 0
8 9 1
8 10 1
8 11 1
8 12 1
9 10 1
9 11 1
9 12 1
10 11 0
10 12 1
11 12 0
